c User generated cnf file
p cnf 14 15
14 6 -10 0 
13 5 -9 0 
3 -11 14 0 
-5 14 13 0 
11 -11 5 0 
8 -13 13 0 
13 -12 3 0 
4 -1 10 0 
8 5 -9 0 
-3 5 13 0 
12 -4 13 0 
-1 2 7 0 
-14 7 5 0 
4 -2 3 0 
-14 8 6 0 
